Route #1: 28 15 21 48 9
Route #2: 45 52 22 55 56 54 63
Route #3: 66 65 37 23 8 32 51
Route #4: 5 13 12 58 31 18
Route #5: 36 42 39 4 14 11 50
Route #6: 7 49 35 20 19 1 46
Route #7: 53 40 64 44 34 6 60
Route #8: 29 17 43 41 16 47 33
Route #9: 25 3 30 57 61 62
Route #10: 2 26 10 27 59 24 38
cost 1179.7823486328125